152 5
10 10 10 10 10 

0 0 0 0 0 0 1 2 
0 0 0 0 0 0 2 3 5 
4 0 0 0 1 0 1 4 
5 0 0 0 2 0 2 9 6 
8 0 0 0 1 0 3 12 9 7 
6 0 0 0 1 0 2 12 7 
4 0 0 0 4 0 1 8 
9 0 0 0 4 0 1 10 
10 0 0 0 6 0 1 10 
7 0 0 0 2 0 1 11 
9 0 0 0 2 0 1 13 
9 0 0 0 2 0 1 13 
0 0 0 0 0 0 1 14 
0 0 0 0 0 0 2 15 17 
9 0 1 0 0 0 1 16 
2 0 2 0 0 0 2 24 18 
10 0 2 0 0 0 2 24 18 
9 0 2 0 0 0 1 19 
10 0 2 0 0 0 1 20 
7 0 4 0 0 0 2 23 21 
10 0 2 0 0 0 1 22 
8 0 2 0 0 0 1 25 
9 0 4 0 0 0 1 25 
1 0 4 0 0 0 1 25 
0 0 0 0 0 0 1 26 
0 0 0 0 0 0 2 27 29 
2 0 0 0 0 1 1 28 
5 0 0 0 0 2 1 30 
8 0 0 0 0 2 1 30 
5 0 0 0 0 2 2 34 31 
9 0 0 0 0 3 1 32 
4 0 0 0 0 5 2 35 33 
3 0 0 0 0 2 1 36 
7 0 0 0 0 4 1 35 
1 0 0 0 0 3 1 37 
6 0 0 0 0 1 1 37 
0 0 0 0 0 0 4 38 60 82 94 
0 0 0 0 0 0 2 39 41 
8 1 0 0 0 1 1 40 
7 1 0 0 0 2 2 43 42 
4 3 0 0 0 3 2 43 42 
3 2 0 0 0 3 1 44 
4 2 0 0 0 1 1 44 
5 2 0 0 0 2 2 46 45 
5 4 0 0 0 2 2 49 47 
8 1 0 0 0 3 2 49 48 
9 3 0 0 0 2 1 48 
5 3 0 0 0 4 1 50 
6 1 0 0 0 3 1 50 
1 5 0 0 0 3 1 51 
6 2 0 0 0 3 1 52 
3 2 0 0 0 5 1 53 
6 3 0 0 0 1 1 54 
8 1 0 0 0 3 2 56 55 
5 3 0 0 0 2 2 57 61 
5 2 0 0 0 3 1 57 
2 5 0 0 0 2 1 58 
3 4 0 0 0 2 1 59 
0 0 0 0 0 0 1 152 
0 0 0 0 0 0 1 61 
5 0 0 1 1 0 2 66 62 
1 0 0 1 2 0 2 70 63 
9 0 0 3 1 0 2 72 64 
3 0 0 2 3 0 1 65 
9 0 0 2 2 0 2 75 67 
2 0 0 4 1 0 3 75 72 69 
7 0 0 3 3 0 1 68 
3 0 0 3 2 0 1 69 
9 0 0 1 2 0 2 73 71 
6 0 0 4 4 0 2 74 72 
6 0 0 3 3 0 1 74 
5 0 0 2 1 0 1 73 
7 0 0 3 5 0 1 76 
3 0 0 5 4 0 1 76 
5 0 0 2 2 0 1 76 
1 0 0 1 2 0 1 77 
1 0 0 2 3 0 1 78 
5 0 0 2 3 0 1 79 
8 0 0 4 5 0 1 80 
10 0 0 2 1 0 1 81 
0 0 0 0 0 0 1 152 
0 0 0 0 0 0 3 83 84 92 
2 0 1 0 0 0 2 89 85 
10 0 2 0 0 0 1 85 
7 0 4 0 0 0 1 86 
3 0 1 0 0 0 1 87 
2 0 1 0 0 0 1 88 
7 0 3 0 0 0 1 90 
3 0 3 0 0 0 1 90 
3 0 2 0 0 0 1 91 
7 0 4 0 0 0 1 93 
8 0 4 0 0 0 1 93 
0 0 0 0 0 0 3 116 128 140 
0 0 0 0 0 0 2 95 99 
10 0 1 0 0 1 1 96 
5 0 2 0 0 2 1 97 
3 0 3 0 0 3 1 98 
10 0 3 0 0 3 2 103 100 
1 0 2 0 0 5 2 103 100 
7 0 4 0 0 1 1 101 
4 0 2 0 0 1 1 102 
9 0 1 0 0 2 2 110 104 
8 0 1 0 0 2 1 104 
7 0 2 0 0 2 1 105 
4 0 3 0 0 1 2 108 106 
7 0 2 0 0 1 1 107 
9 0 3 0 0 3 2 114 109 
10 0 3 0 0 5 2 114 111 
9 0 3 0 0 4 1 111 
5 0 3 0 0 4 1 111 
10 0 3 0 0 1 1 112 
5 0 2 0 0 4 1 113 
10 0 5 0 0 1 1 115 
1 0 2 0 0 4 1 115 
0 0 0 0 0 0 1 152 
0 0 0 0 0 0 1 117 
10 0 0 0 1 0 2 120 118 
6 0 0 0 2 0 1 119 
8 0 0 0 4 0 2 124 121 
1 0 0 0 4 0 2 124 122 
9 0 0 0 1 0 1 122 
7 0 0 0 1 0 2 126 123 
2 0 0 0 1 0 1 125 
5 0 0 0 2 0 1 125 
3 0 0 0 4 0 1 127 
8 0 0 0 5 0 1 127 
0 0 0 0 0 0 1 152 
0 0 0 0 0 0 2 129 131 
2 1 0 0 0 0 2 133 130 
1 4 0 0 0 0 2 138 132 
8 1 0 0 0 0 2 138 132 
10 3 0 0 0 0 1 134 
1 2 0 0 0 0 1 134 
9 1 0 0 0 0 1 135 
6 2 0 0 0 0 1 136 
10 4 0 0 0 0 1 137 
4 5 0 0 0 0 1 139 
6 2 0 0 0 0 1 139 
0 0 0 0 0 0 1 152 
0 0 0 0 0 0 2 141 145 
7 0 1 0 0 0 1 142 
5 0 3 0 0 0 1 143 
2 0 3 0 0 0 1 144 
6 0 2 0 0 0 2 150 146 
4 0 1 0 0 0 2 150 147 
10 0 3 0 0 0 1 148 
3 0 5 0 0 0 1 148 
5 0 4 0 0 0 1 149 
10 0 2 0 0 0 1 151 
1 0 1 0 0 0 1 151 
0 0 0 0 0 0 1 152 
0 0 0 0 0 0 0 
